TCS_Benchmarks/redos_fix/snort3_output_distinct_4489_4488_1_0.txt
[^\n\r]*
([^\n\r]*)([jJ][mM][aA][iI][lL])([^\n\r]*)
[^\n\r]*